100
1000
200
200
199
198
197
197
196
196
193
192
192
191
191
190
190
189
189
187
187
187
186
186
186
186
183
183
183
183
182
182
182
180
180
179
179
178
178
178
178
177
176
176
176
176
176
176
175
175
175
174
174
174
173
173
173
173
172
172
170
170
170
169
169
167
167
166
166
166
164
164
164
162
162
161
161
160
160
160
159
158
157
157
156
156
156
156
156
155
155
154
154
154
153
153
153
153
153
152
151
151
